p cnf 97 307
3 -1 0
3 2 0
1 -2 -3 0
-4 -1 -5 0
4 1 -5 0
-4 1 5 0
4 -1 5 0
6 3 0
6 5 0
-3 -5 -6 0
-8 4 0
-8 7 0
-4 -7 8 0
-10 -5 0
-10 -9 0
5 9 10 0
11 -8 0
11 10 0
8 -10 -11 0
13 -12 0
13 3 0
12 -3 -13 0
15 -1 0
15 14 0
1 -14 -15 0
16 -13 0
16 15 0
13 -15 -16 0
-1 17 0
1 17 0
-17 -1 -18 0
17 1 -18 0
-17 1 18 0
17 -1 18 0
20 19 0
20 1 0
-19 -1 -20 0
22 21 0
22 2 0
-21 -2 -22 0
-24 22 0
-24 -23 0
-22 23 24 0
-25 20 0
-25 24 0
-20 -24 25 0
-26 -19 0
-26 25 0
19 -25 26 0
-18 -26 -27 0
18 26 -27 0
-18 26 27 0
18 -26 27 0
-29 -19 0
-29 -1 0
19 1 29 0
32 -30 0
32 31 0
30 -31 -32 0
33 -29 0
33 32 0
29 -32 -33 0
-34 -28 0
-34 -33 0
28 33 34 0
-35 -27 0
-35 -34 0
27 34 35 0
16 -35 -36 0
-16 35 -36 0
16 35 36 0
-16 -35 36 0
37 -11 0
37 36 0
11 -36 -37 0
-38 -1 0
-38 23 0
1 -23 38 0
-39 -37 0
-39 -38 0
37 38 39 0
42 -40 0
42 41 0
40 -41 -42 0
10 -42 -43 0
-10 42 -43 0
10 42 43 0
-10 -42 43 0
3 -5 -45 0
-3 5 -45 0
3 5 45 0
-3 -5 45 0
46 -26 0
46 45 0
26 -45 -46 0
-47 30 0
-47 29 0
-30 -29 47 0
-48 -47 0
-48 3 0
47 -3 48 0
49 19 0
49 -48 0
-19 48 -49 0
-49 26 -50 0
49 -26 -50 0
-49 -26 50 0
49 26 50 0
9 50 -51 0
-9 -50 -51 0
9 -50 51 0
-9 50 51 0
-46 -51 -52 0
46 51 -52 0
-46 51 52 0
46 -51 52 0
-44 52 -53 0
44 -52 -53 0
-44 -52 53 0
44 52 53 0
54 2 0
54 -23 0
-2 23 -54 0
55 -28 0
55 23 0
28 -23 -55 0
56 55 0
56 -18 0
-55 18 -56 0
57 23 0
57 21 0
-23 -21 -57 0
-58 8 0
-58 -57 0
-8 57 58 0
-59 56 0
-59 -58 0
-56 58 59 0
30 5 -60 0
-30 -5 -60 0
30 -5 60 0
-30 5 60 0
60 57 -61 0
-60 -57 -61 0
60 -57 61 0
-60 57 61 0
-62 59 0
-62 61 0
-59 -61 62 0
-63 -54 0
-63 62 0
54 -62 63 0
64 53 0
64 -63 0
-53 63 -64 0
-65 43 0
-65 -64 0
-43 64 65 0
-1 -5 -66 0
1 5 -66 0
-1 5 66 0
1 -5 66 0
67 -18 0
67 2 0
18 -2 -67 0
-68 25 0
-68 67 0
-25 -67 68 0
-19 29 -69 0
19 -29 -69 0
-19 -29 69 0
19 29 69 0
-70 -68 0
-70 69 0
68 -69 70 0
66 -70 -71 0
-66 70 -71 0
66 70 71 0
-66 -70 71 0
-72 45 0
-72 1 0
-45 -1 72 0
73 21 0
73 -20 0
-21 20 -73 0
-74 73 0
-74 -45 0
-73 45 74 0
-75 72 0
-75 -74 0
-72 74 75 0
76 71 0
76 75 0
-71 -75 -76 0
77 -65 0
77 -76 0
65 76 -77 0
-78 -39 0
-78 -77 0
39 77 78 0
-79 -6 0
-79 -78 0
6 78 79 0
10 46 -80 0
-10 -46 -80 0
10 -46 80 0
-10 46 80 0
-81 -20 0
-81 -9 0
20 9 81 0
82 -41 0
82 -81 0
41 81 -82 0
-83 82 0
-83 69 0
-82 -69 83 0
-84 -80 0
-84 -83 0
80 83 84 0
85 5 0
85 -17 0
-5 17 -85 0
-84 85 -86 0
84 -85 -86 0
-84 -85 86 0
84 85 86 0
-79 86 -87 0
79 -86 -87 0
-79 -86 87 0
79 86 87 0
88 21 0
88 20 0
-21 -20 -88 0
-73 5 -89 0
73 -5 -89 0
-73 -5 89 0
73 5 89 0
32 89 -90 0
-32 -89 -90 0
32 -89 90 0
-32 89 90 0
-88 -90 -91 0
88 90 -91 0
-88 90 91 0
88 -90 91 0
-14 29 -92 0
14 -29 -92 0
-14 -29 92 0
14 29 92 0
93 92 0
93 -30 0
-92 30 -93 0
-81 28 -94 0
81 -28 -94 0
-81 -28 94 0
81 28 94 0
-95 93 0
-95 -94 0
-93 94 95 0
96 -91 0
96 95 0
91 -95 -96 0
87 -96 -97 0
-87 96 -97 0
87 96 97 0
-87 -96 97 0
36 -94 16 34 -32 0
92 75 -29 0
-73 -29 -92 -50 -62 -69 0
-70 -97 54 0
-49 69 -93 85 24 0
-63 -24 84 -12 -2 0
58 91 0
38 -73 87 0
69 28 0
-3 -28 -97 70 0
87 82 0
85 -54 -3 0
32 35 0
38 -10 0
-42 79 -56 18 44 0
-50 60 -68 36 -6 31 0
63 96 -79 82 0
16 20 95 0
-67 -38 -92 97 79 0
16 -96 -67 -44 87 -34 0
36 -93 -60 96 16 -32 0
-48 -19 28 1 93 -60 0
-33 38 0
30 -51 0
87 -58 2 -88 -8 0
55 -87 29 89 1 -34 0
84 -37 65 -50 47 0
14 18 -53 12 -41 7 0
-16 -84 -21 0
-85 -97 -5 0
67 -16 62 -73 0
-9 84 -65 0
30 -10 0
40 -27 0
60 -54 0
58 -3 -92 -11 14 0
2 -49 -61 58 -50 0
-54 -82 0
-51 -30 -88 0
-62 11 75 17 0
97 0
